HmaxDs = 1.000000
HmaxUB_percent = 1.997904
HmaxUB_real = 17774.668597
FTnetDs = 1.000000
FTnetUB_percent = 1.169546
FTnetUB_real = 51952.303680
TIFgap = 0.700000
LimCIPF = 51.68839494
SCIP version 1.1.0 [precision: 8 byte] [memory: block] [mode: optimized] [LP solver: Clp 1.8.2]
Copyright (c) 2002-2008 Konrad-Zuse-Zentrum fuer Informationstechnik Berlin (ZIB)

reading user parameter file </home/fabio/docs/hierarquia/models/scip.set>

read problem <data.N30.I1.s1.backbone0.T5.GL1.W1.TIFgap0.7.mps.gz>
============

original problem has 175 variables (90 bin, 0 int, 0 impl, 85 cont) and 102 constraints

solve problem
=============

presolving:
(round 1) 3 del vars, 3 del conss, 4 chg bounds, 0 chg sides, 20 chg coeffs, 0 upgd conss, 0 impls, 20 clqs
(round 2) 10 del vars, 3 del conss, 9 chg bounds, 1 chg sides, 20 chg coeffs, 0 upgd conss, 0 impls, 20 clqs
(round 3) 52 del vars, 23 del conss, 51 chg bounds, 4 chg sides, 21 chg coeffs, 0 upgd conss, 0 impls, 10 clqs
(round 4) 60 del vars, 25 del conss, 59 chg bounds, 4 chg sides, 25 chg coeffs, 0 upgd conss, 0 impls, 8 clqs
(round 5) 65 del vars, 30 del conss, 64 chg bounds, 4 chg sides, 29 chg coeffs, 0 upgd conss, 0 impls, 7 clqs
(round 6) 70 del vars, 35 del conss, 69 chg bounds, 4 chg sides, 29 chg coeffs, 0 upgd conss, 0 impls, 6 clqs
(round 7) 74 del vars, 39 del conss, 73 chg bounds, 4 chg sides, 33 chg coeffs, 0 upgd conss, 0 impls, 5 clqs
(round 8) 74 del vars, 40 del conss, 73 chg bounds, 4 chg sides, 33 chg coeffs, 6 upgd conss, 0 impls, 5 clqs
(round 9) 78 del vars, 40 del conss, 101 chg bounds, 4 chg sides, 33 chg coeffs, 6 upgd conss, 790 impls, 4 clqs
(round 10) 87 del vars, 43 del conss, 101 chg bounds, 4 chg sides, 33 chg coeffs, 6 upgd conss, 790 impls, 4 clqs
presolving (11 rounds):
 87 deleted vars, 43 deleted constraints, 101 tightened bounds, 0 added holes, 4 changed sides, 33 changed coefficients
 790 implications, 4 cliques
presolved problem has 88 variables (16 bin, 0 int, 0 impl, 72 cont) and 59 constraints
      1 constraints of type <knapsack>
      5 constraints of type <setppc>
     53 constraints of type <linear>
Presolving Time: 0.02

 time | node  | left  |LP iter| mem |mdpt |frac |vars |cons |ccons|cols |rows |cuts |confs|strbr|  dualbound   | primalbound  |  gap   
  0.0s|     1 |     0 |    36 | 456k|   0 |  15 |  88 |  59 |  59 |  88 |  58 |   0 |   0 |   0 | 3.282043e+03 |      --      |    Inf 
  0.1s|     1 |     0 |   286 | 500k|   0 |  15 |  88 |  59 |  59 |  88 | 105 |  47 |   0 |   0 | 1.957824e+04 |      --      |    Inf 
  0.2s|     1 |     0 |   358 | 531k|   0 |  15 |  88 |  59 |  59 |  88 | 143 |  85 |   0 |   0 | 2.636563e+04 |      --      |    Inf 
  0.3s|     1 |     0 |   415 | 571k|   0 |  16 |  88 |  59 |  59 |  88 | 176 | 118 |   0 |   0 | 2.894509e+04 |      --      |    Inf 
  0.5s|     1 |     0 |   469 | 609k|   0 |  14 |  88 |  59 |  59 |  88 | 199 | 141 |   0 |   0 | 3.053602e+04 |      --      |    Inf 
  0.6s|     1 |     0 |   498 | 621k|   0 |  16 |  88 |  59 |  59 |  88 | 213 | 155 |   0 |   0 | 3.098983e+04 |      --      |    Inf 
  0.8s|     1 |     0 |   531 | 635k|   0 |  15 |  88 |  59 |  59 |  88 | 227 | 169 |   0 |   0 | 3.180040e+04 |      --      |    Inf 
  1.0s|     1 |     0 |   585 | 649k|   0 |  15 |  88 |  59 |  59 |  88 | 238 | 180 |   0 |   0 | 3.284400e+04 |      --      |    Inf 
  1.1s|     1 |     0 |   606 | 656k|   0 |  16 |  88 |  59 |  59 |  88 | 245 | 187 |   0 |   0 | 3.304328e+04 |      --      |    Inf 
  1.3s|     1 |     0 |   664 | 669k|   0 |  16 |  88 |  59 |  59 |  88 | 256 | 198 |   0 |   0 | 3.404693e+04 |      --      |    Inf 
  1.5s|     1 |     0 |   707 | 676k|   0 |  16 |  88 |  59 |  59 |  88 | 264 | 206 |   0 |   0 | 3.433221e+04 |      --      |    Inf 
  1.8s|     1 |     2 |   746 | 677k|   0 |  16 |  88 |  59 |  59 |  88 | 264 | 206 |   0 |  16 | 3.433221e+04 |      --      |    Inf 
* 1.8s|     3 |     2 |   825 | 685k|   2 |   - |  88 |  59 |   0 |  88 | 113 | 206 |   0 |  29 | 3.817419e+04 | 5.101638e+04 |  33.64%

SCIP Status        : solving was interrupted [solution limit reached]
Solving Time (sec) : 1.79
Solving Nodes      : 3
Primal Bound       : +5.10163775419174e+04 (1 solutions)
Dual Bound         : +3.81741927535894e+04
Gap                : 33.64 %
  [linear] <CapAndNullFlowAut[1,3,1]>: -17774.6686<b[1,1,3,1]>[B] -17774.6686<b[1,2,3,1]>[B] +17774.668597<b[1,3,2,1]>[B] +17774.668597<b[1,3,4,1]>[B] +17774.668597<b[1,3,5,1]>[B] -17774.6686<b[1,4,3,1]>[B] -17774.6686<b[1,5,3,1]>[B] +7025.63<qw[1,3,2,1]>[C] +8896.66<qw[1,3,4,1]>[C] +5410.64<qw[1,3,5,1]>[C] +6472.743<qw[1,3,1,1]>[C] <= 0
violation: right hand side is violated by -5.91625939705409e-06
best solution is not feasible in original problem

primal solution:
================

objective value:                     51016.3775419174
b[1,1,5,1]                                          1 	(obj:0)
b[2,2,3,1]                                          1 	(obj:0)
b[4,3,2,1]                           1.00000000001009 	(obj:0)
b[1,3,4,1]                           1.00000000050163 	(obj:0)
b[3,3,5,1]                           1.00000000001009 	(obj:0)
b[4,4,3,1]                                          1 	(obj:0)
b[5,5,1,1]                                          1 	(obj:0)
b[1,5,3,1]                                          1 	(obj:0)
h[1,5]                                              1 	(obj:0)
h[2,3]                                              1 	(obj:0)
h[3,4]                                              1 	(obj:0)
h[3,5]                                              1 	(obj:0)
qw[1,4,2,1]                         0.293966519425751 	(obj:0)
qw[5,1,2,1]                         0.509242587221764 	(obj:0)
qw[1,4,3,1]                              0.5779755287 	(obj:0)
qw[5,1,3,1]                               0.809390056 	(obj:0)
qw[5,1,4,1]                              0.2411388094 	(obj:0)
qw[1,4,5,1]                         0.805736475204179 	(obj:0)
qw[5,1,5,1]                                         1 	(obj:0)
qw[2,3,1,1]                         0.433453483299999 	(obj:0)
qw[4,2,1,1]                          0.67692213314039 	(obj:0)
qw[4,2,3,1]                         0.233647932627276 	(obj:0)
qw[2,3,4,1]                         0.704629602608489 	(obj:0)
qw[4,2,4,1]                          1.00000000001009 	(obj:0)
qw[2,3,5,1]                               0.281434359 	(obj:0)
qw[4,2,5,1]                              0.4823292623 	(obj:0)
qw[3,5,1,1]                              0.1433276433 	(obj:0)
qw[3,5,2,1]                         0.689179475425751 	(obj:0)
qw[2,3,2,1]                                         1 	(obj:0)
qw[3,5,4,1]                         0.429863566793416 	(obj:0)
qw[1,4,1,1]                          1.00000000050163 	(obj:0)
qw[3,5,3,1]                          1.00000000000426 	(obj:0)
CIPF                                         51.34855 	(obj:0)
CustoTrafRetr                        50965.0289941048 	(obj:0)
TotalTrancpt                         5.00000000001009 	(obj:0)
CustoTotal                           51016.3775441048 	(obj:0)
Obj                                  51016.3775441048 	(obj:1)

Statistics
==========

SCIP Status        : solving was interrupted [solution limit reached]
Solving Time       :       1.79
Original Problem   :
  Problem name     : labtel
  Variables        : 175 (90 binary, 0 integer, 0 implicit integer, 85 continuous)
  Constraints      : 102 initial, 102 maximal
Presolved Problem  :
  Problem name     : t_labtel
  Variables        : 88 (16 binary, 0 integer, 0 implicit integer, 72 continuous)
  Constraints      : 59 initial, 59 maximal
Presolvers         :       Time  FixedVars   AggrVars   ChgTypes  ChgBounds   AddHoles    DelCons   ChgSides   ChgCoefs
  trivial          :       0.00          0          0          0          0          0          0          0          0
  dualfix          :       0.00          0          0          0          0          0          0          0          0
  boundshift       :       0.00          0          0          0          0          0          0          0          0
  inttobinary      :       0.00          0          0          0          0          0          0          0          0
  implics          :       0.00          0          9          0          0          0          0          0          0
  probing          :       0.01          4          0          0         28          0          0          0          0
  knapsack         :       0.00          0          0          0          0          0          0          0          0
  setppc           :       0.00          0          0          0          0          0          0          0          0
  linear           :       0.00         69          5          0         73          0         43          4         33
  root node        :          -          0          -          -          0          -          -          -          -
Constraints        :     Number  #Separate #Propagate    #EnfoLP    #EnfoPS    Cutoffs    DomReds       Cuts      Conss   Children
  integral         :          0          0          0          4          0          0          4          0          0          4
  knapsack         :          1         11        119          0          0          0          2          0          0          0
  setppc           :          5         11        127          0          0          0          5          0          0          0
  linear           :         53         11        129          0          0          4        115          0          0          0
  countsols        :          0          0          0          1          0          0          0          0          0          0
Constraint Timings :  TotalTime   Separate  Propagate     EnfoLP     EnfoPS
  integral         :       0.23       0.00       0.00       0.23       0.00
  knapsack         :       0.00       0.00       0.00       0.00       0.00
  setppc           :       0.00       0.00       0.00       0.00       0.00
  linear           :       0.00       0.00       0.00       0.00       0.00
  countsols        :       0.00       0.00       0.00       0.00       0.00
Propagators        :       Time      Calls    Cutoffs    DomReds
  rootredcost      :       0.00          0          0          0
  pseudoobj        :       0.00         23          0          0
Conflict Analysis  :       Time      Calls    Success  Conflicts   Literals    Reconvs ReconvLits   LP Iters
  propagation      :       0.00          0          0          0        0.0          0        0.0          -
  infeasible LP    :       0.00          0          0          0        0.0          0        0.0          0
  bound exceed. LP :       0.00          0          0          0        0.0          0        0.0          0
  strong branching :       0.00          0          0          0        0.0          0        0.0          0
  pseudo solution  :       0.00          0          0          0        0.0          0        0.0          -
  applied globally :          -          -          -          0        0.0          -          -          -
  applied locally  :          -          -          -          0        0.0          -          -          -
Separators         :       Time      Calls    Cutoffs    DomReds       Cuts      Conss
  cut pool         :       0.00         10          -          -         29          -    (maximal pool size: 440)
  redcost          :       0.00         14          0          0          0          0
  impliedbounds    :       0.00         11          0          0         27          0
  intobj           :       0.00          0          0          0          0          0
  gomory           :       0.02         11          0          0          2          0
  strongcg         :       0.01         11          0          0          0          0
  cmir             :       0.57         10          0          0        369          0
  flowcover        :       0.83         10          0          0        169          0
  clique           :       0.00         11          0          0          1          0
  zerohalf         :       0.00          0          0          0          0          0
  mcf              :       0.00          0          0          0          0          0
Pricers            :       Time      Calls       Vars
  problem variables:       0.00          0          0
Branching Rules    :       Time      Calls    Cutoffs    DomReds       Cuts      Conss   Children
  relpscost        :       0.23          3          0          4          0          0          4
  pscost           :       0.00          0          0          0          0          0          0
  inference        :       0.00          0          0          0          0          0          0
  mostinf          :       0.00          0          0          0          0          0          0
  leastinf         :       0.00          0          0          0          0          0          0
  fullstrong       :       0.00          0          0          0          0          0          0
  allfullstrong    :       0.00          0          0          0          0          0          0
  random           :       0.00          0          0          0          0          0          0
Primal Heuristics  :       Time      Calls      Found
  LP solutions     :       0.00          -          1
  pseudo solutions :       0.00          -          0
  oneopt           :       0.00          0          0
  coefdiving       :       0.00          0          0
  pscostdiving     :       0.00          0          0
  simplerounding   :       0.00          0          0
  rounding         :       0.00         13          0
  shifting         :       0.00         11          0
  intshifting      :       0.01          1          0
  fixandinfer      :       0.00          0          0
  feaspump         :       0.01          1          0
  fracdiving       :       0.00          0          0
  veclendiving     :       0.00          0          0
  intdiving        :       0.00          0          0
  actconsdiving    :       0.00          0          0
  objpscostdiving  :       0.00          0          0
  rootsoldiving    :       0.00          0          0
  linesearchdiving :       0.00          0          0
  guideddiving     :       0.00          0          0
  octane           :       0.00          0          0
  rens             :       0.01          0          0
  rins             :       0.00          0          0
  localbranching   :       0.00          0          0
  mutation         :       0.00          0          0
  crossover        :       0.00          0          0
  dins             :       0.00          0          0
LP                 :       Time      Calls Iterations  Iter/call   Iter/sec
  primal LP        :       0.00          0          0       0.00          -
  dual LP          :       0.06         14        589      42.07    9816.67
  barrier LP       :       0.00          0          0       0.00          -
  diving/probing LP:       0.01         25        236       9.44          -
  strong branching :       0.23         29       2637      90.93   11465.22
    (at root node) :          -         16       2053     128.31          -
  conflict analysis:       0.00          0          0       0.00          -
B&B Tree           :
  number of runs   :          1
  nodes            :          3
  nodes (total)    :          3
  nodes left       :          2
  max depth        :          2
  max depth (total):          2
  backtracks       :          0 (0.0%)
  delayed cutoffs  :          0
  repropagations   :          0 (0 domain reductions, 0 cutoffs)
  avg switch length:       1.00
  switching time   :       0.00
Solution           :
  Solutions found  :          1 (1 improvements)
  Primal Bound     : +5.10163775419174e+04   (in run 1, after 3 nodes, 1.79 seconds, depth 2, found by <relaxation>)
  Dual Bound       : +3.81741927535894e+04
  Gap              :      33.64 %
  Root Dual Bound  : +3.43322107350780e+04
Reading model section from /home/fabio/docs/hierarquia/models/calc-cong.mod...
129 lines were read
Reading data section from data.N30.I1.s1.backbone0.T5.GL1.W1.TIFgap0.7.sol...
76 lines were read

Display statement at line 45
A[1] = 6472.743
A[2] = 7025.63
A[3] = 7177.38
A[4] = 8896.66
A[5] = 5410.64

Display statement at line 48
LigLog[1,4] = 1
LigLog[2,3] = 1
LigLog[3,5] = 1
LigLog[4,2] = 1
LigLog[5,1] = 1

Display statement at line 51
TrafMedio[1,4] = 17045.9430002527
TrafMedio[2,3] = 17622.8530003783
TrafMedio[3,5] = 16771.3729979603
TrafMedio[4,2] = 17564.8929972808
TrafMedio[5,1] = 16943.0199982327

Congestionamento: 17622.8530003783

MTB: 8896.66

Model has been successfully generated
